c nIsolatedPIs 0
c maxPI 12
p cnf 136 373
c gate 13 3 7 0
3 -13 0
7 -13 0
-3 -7 13 0
c gate 14 4 6 0
4 -14 0
6 -14 0
-4 -6 14 0
c gate 15 13 14 0
13 -15 0
14 -15 0
-13 -14 15 0
c gate 16 -8 15 0
-8 -16 0
15 -16 0
8 -15 16 0
c gate 17 4 8 0
4 -17 0
8 -17 0
-4 -8 17 0
c gate 18 -13 17 0
-13 -18 0
17 -18 0
13 -17 18 0
c gate 19 -16 -18 0
-16 -19 0
-18 -19 0
16 18 19 0
c gate 20 3 5 0
3 -20 0
5 -20 0
-3 -5 20 0
c gate 21 2 6 0
2 -21 0
6 -21 0
-2 -6 21 0
c gate 22 20 21 0
20 -22 0
21 -22 0
-20 -21 22 0
c gate 23 1 7 0
1 -23 0
7 -23 0
-1 -7 23 0
c gate 24 -20 -21 0
-20 -24 0
-21 -24 0
20 21 24 0
c gate 25 -22 -24 0
-22 -25 0
-24 -25 0
22 24 25 0
c gate 26 23 25 0
23 -26 0
25 -26 0
-23 -25 26 0
c gate 27 -22 -26 0
-22 -27 0
-26 -27 0
22 26 27 0
c gate 28 2 7 0
2 -28 0
7 -28 0
-2 -7 28 0
c gate 29 3 6 0
3 -29 0
6 -29 0
-3 -6 29 0
c gate 30 4 5 0
4 -30 0
5 -30 0
-4 -5 30 0
c gate 31 -29 -30 0
-29 -31 0
-30 -31 0
29 30 31 0
c gate 32 29 30 0
29 -32 0
30 -32 0
-29 -30 32 0
c gate 33 -31 -32 0
-31 -33 0
-32 -33 0
31 32 33 0
c gate 34 28 33 0
28 -34 0
33 -34 0
-28 -33 34 0
c gate 35 -28 -33 0
-28 -35 0
-33 -35 0
28 33 35 0
c gate 36 -34 -35 0
-34 -36 0
-35 -36 0
34 35 36 0
c gate 37 -27 36 0
-27 -37 0
36 -37 0
27 -36 37 0
c gate 38 1 8 0
1 -38 0
8 -38 0
-1 -8 38 0
c gate 39 27 -36 0
27 -39 0
-36 -39 0
-27 36 39 0
c gate 40 -37 -39 0
-37 -40 0
-39 -40 0
37 39 40 0
c gate 41 38 40 0
38 -41 0
40 -41 0
-38 -40 41 0
c gate 42 -37 -41 0
-37 -42 0
-41 -42 0
37 41 42 0
c gate 43 2 8 0
2 -43 0
8 -43 0
-2 -8 43 0
c gate 44 -13 -14 0
-13 -44 0
-14 -44 0
13 14 44 0
c gate 45 -15 -44 0
-15 -45 0
-44 -45 0
15 44 45 0
c gate 46 -32 -34 0
-32 -46 0
-34 -46 0
32 34 46 0
c gate 47 45 -46 0
45 -47 0
-46 -47 0
-45 46 47 0
c gate 48 -45 46 0
-45 -48 0
46 -48 0
45 -46 48 0
c gate 49 -47 -48 0
-47 -49 0
-48 -49 0
47 48 49 0
c gate 50 43 49 0
43 -50 0
49 -50 0
-43 -49 50 0
c gate 51 -43 -49 0
-43 -51 0
-49 -51 0
43 49 51 0
c gate 52 -50 -51 0
-50 -52 0
-51 -52 0
50 51 52 0
c gate 53 -42 52 0
-42 -53 0
52 -53 0
42 -52 53 0
c gate 54 42 -52 0
42 -54 0
-52 -54 0
-42 52 54 0
c gate 55 -53 -54 0
-53 -55 0
-54 -55 0
53 54 55 0
c gate 56 -38 -40 0
-38 -56 0
-40 -56 0
38 40 56 0
c gate 57 -41 -56 0
-41 -57 0
-56 -57 0
41 56 57 0
c gate 58 -23 -25 0
-23 -58 0
-25 -58 0
23 25 58 0
c gate 59 -26 -58 0
-26 -59 0
-58 -59 0
26 58 59 0
c gate 60 2 5 0
2 -60 0
5 -60 0
-2 -5 60 0
c gate 61 1 6 0
1 -61 0
6 -61 0
-1 -6 61 0
c gate 62 60 61 0
60 -62 0
61 -62 0
-60 -61 62 0
c gate 63 59 62 0
59 -63 0
62 -63 0
-59 -62 63 0
c gate 64 57 63 0
57 -64 0
63 -64 0
-57 -63 64 0
c gate 65 55 64 0
55 -65 0
64 -65 0
-55 -64 65 0
c gate 66 -53 -65 0
-53 -66 0
-65 -66 0
53 65 66 0
c gate 67 -57 -63 0
-57 -67 0
-63 -67 0
57 63 67 0
c gate 68 -64 -67 0
-64 -68 0
-67 -68 0
64 67 68 0
c gate 69 12 68 0
12 -69 0
68 -69 0
-12 -68 69 0
c gate 70 1 5 0
1 -70 0
5 -70 0
-1 -5 70 0
c gate 71 9 70 0
9 -71 0
70 -71 0
-9 -70 71 0
c gate 72 -10 -71 0
-10 -72 0
-71 -72 0
10 71 72 0
c gate 73 10 71 0
10 -73 0
71 -73 0
-10 -71 73 0
c gate 74 -60 -61 0
-60 -74 0
-61 -74 0
60 61 74 0
c gate 75 -73 74 0
-73 -75 0
74 -75 0
73 -74 75 0
c gate 76 -72 -75 0
-72 -76 0
-75 -76 0
72 75 76 0
c gate 77 62 -73 0
62 -77 0
-73 -77 0
-62 73 77 0
c gate 78 76 -77 0
76 -78 0
-77 -78 0
-76 77 78 0
c gate 79 11 78 0
11 -79 0
78 -79 0
-11 -78 79 0
c gate 80 -11 -78 0
-11 -80 0
-78 -80 0
11 78 80 0
c gate 81 -59 -62 0
-59 -81 0
-62 -81 0
59 62 81 0
c gate 82 -63 -81 0
-63 -82 0
-81 -82 0
63 81 82 0
c gate 83 -80 82 0
-80 -83 0
82 -83 0
80 -82 83 0
c gate 84 -79 -83 0
-79 -84 0
-83 -84 0
79 83 84 0
c gate 85 -69 84 0
-69 -85 0
84 -85 0
69 -84 85 0
c gate 86 -55 -64 0
-55 -86 0
-64 -86 0
55 64 86 0
c gate 87 -12 -68 0
-12 -87 0
-68 -87 0
12 68 87 0
c gate 88 -65 -87 0
-65 -88 0
-87 -88 0
65 87 88 0
c gate 89 -86 88 0
-86 -89 0
88 -89 0
86 -88 89 0
c gate 90 -85 89 0
-85 -90 0
89 -90 0
85 -89 90 0
c gate 91 -66 90 0
-66 -91 0
90 -91 0
66 -90 91 0
c gate 92 -47 -50 0
-47 -92 0
-50 -92 0
47 50 92 0
c gate 93 3 8 0
3 -93 0
8 -93 0
-3 -8 93 0
c gate 94 4 7 0
4 -94 0
7 -94 0
-4 -7 94 0
c gate 95 -29 94 0
-29 -95 0
94 -95 0
29 -94 95 0
c gate 96 93 -95 0
93 -96 0
-95 -96 0
-93 95 96 0
c gate 97 -93 95 0
-93 -97 0
95 -97 0
93 -95 97 0
c gate 98 -96 -97 0
-96 -98 0
-97 -98 0
96 97 98 0
c gate 99 -92 -98 0
-92 -99 0
-98 -99 0
92 98 99 0
c gate 100 -91 99 0
-91 -100 0
99 -100 0
91 -99 100 0
c gate 101 92 98 0
92 -101 0
98 -101 0
-92 -98 101 0
c gate 102 -91 101 0
-91 -102 0
101 -102 0
91 -101 102 0
c gate 103 66 -90 0
66 -103 0
-90 -103 0
-66 90 103 0
c gate 104 -99 -103 0
-99 -104 0
-103 -104 0
99 103 104 0
c gate 105 -102 104 0
-102 -105 0
104 -105 0
102 -104 105 0
c gate 106 -100 -105 0
-100 -106 0
-105 -106 0
100 105 106 0
c gate 107 19 -106 0
19 -107 0
-106 -107 0
-19 106 107 0
c gate 108 -19 106 0
-19 -108 0
106 -108 0
19 -106 108 0
c gate 109 -107 -108 0
-107 -109 0
-108 -109 0
107 108 109 0
c gate 110 12 57 0
12 -110 0
57 -110 0
-12 -57 110 0
c gate 111 -11 -76 0
-11 -111 0
-76 -111 0
11 76 111 0
c gate 112 11 76 0
11 -112 0
76 -112 0
-11 -76 112 0
c gate 113 -59 -112 0
-59 -113 0
-112 -113 0
59 112 113 0
c gate 114 -111 -113 0
-111 -114 0
-113 -114 0
111 113 114 0
c gate 115 -110 -114 0
-110 -115 0
-114 -115 0
110 114 115 0
c gate 116 -12 -57 0
-12 -116 0
-57 -116 0
12 57 116 0
c gate 117 55 -116 0
55 -117 0
-116 -117 0
-55 116 117 0
c gate 118 -115 117 0
-115 -118 0
117 -118 0
115 -117 118 0
c gate 119 -99 -101 0
-99 -119 0
-101 -119 0
99 101 119 0
c gate 120 118 119 0
118 -120 0
119 -120 0
-118 -119 120 0
c gate 121 -53 -99 0
-53 -121 0
-99 -121 0
53 99 121 0
c gate 122 -101 -121 0
-101 -122 0
-121 -122 0
101 121 122 0
c gate 123 19 122 0
19 -123 0
122 -123 0
-19 -122 123 0
c gate 124 -19 -122 0
-19 -124 0
-122 -124 0
19 122 124 0
c gate 125 -123 -124 0
-123 -125 0
-124 -125 0
123 124 125 0
c gate 126 -120 125 0
-120 -126 0
125 -126 0
120 -125 126 0
c gate 127 -109 126 0
-109 -127 0
126 -127 0
109 -126 127 0
c gate 128 109 -126 0
109 -128 0
-126 -128 0
-109 126 128 0
c gate 129 -53 -118 0
-53 -129 0
-118 -129 0
53 118 129 0
c gate 130 -91 -103 0
-91 -130 0
-103 -130 0
91 103 130 0
c gate 131 -129 130 0
-129 -131 0
130 -131 0
129 -130 131 0
c gate 132 129 -130 0
129 -132 0
-130 -132 0
-129 130 132 0
c gate 133 -131 -132 0
-131 -133 0
-132 -133 0
131 132 133 0
c gate 134 -62 -133 0
-62 -134 0
-133 -134 0
62 133 134 0
c gate 135 -128 134 0
-128 -135 0
134 -135 0
128 -134 135 0
c gate 136 -127 135 0
-127 -136 0
135 -136 0
127 -135 136 0
c PO
-136 0
